
Gurobi 9.1.1 (mac64, gurobi_cl) logging started Fri Mar  5 18:55:00 2021

Academic license - for non-commercial use only - expires 2021-04-06
Using license file /Users/agnese/gurobi.lic
Set parameter LogFile to value gurobi.log

Gurobi Optimizer version 9.1.1 build v9.1.1rc0 (mac64)
Copyright (c) 2020, Gurobi Optimization, LLC

Read LP format model from file /Users/agnese/Documents/KTH-Work/GitHub_repositories/KTH-dESA/GLUCOSE/results/FINAL_2060/4.2_2Degree/new2/GLUCOSE_4.Final2DEGREE+HPnewlimit_LowActivLimFF_noHP.lp
Reading time = 4.04 seconds
cost: 1097364 rows, 1087932 columns, 1787999 nonzeros
Thread count: 2 physical cores, 4 logical processors, using up to 4 threads
Optimize a model with 1097364 rows, 1087932 columns and 1787999 nonzeros
Model fingerprint: 0x2ff1e37a
Coefficient statistics:
  Matrix range     [2e-08, 4e+11]
  Objective range  [7e-08, 4e+11]
  Bounds range     [0e+00, 0e+00]
  RHS range        [1e-04, 1e+06]
Warning: Model contains large matrix coefficient range
Warning: Model contains large objective coefficients
         Consider reformulating model or setting NumericFocus parameter
         to avoid numerical issues.

Concurrent LP optimizer: dual simplex and barrier
Showing barrier log only...

Presolve removed 1071602 rows and 1069968 columns
Presolve time: 1.61s
Presolved: 25762 rows, 18157 columns, 352149 nonzeros

Ordering time: 0.71s

Barrier statistics:
 AA' NZ     : 1.305e+06
 Factor NZ  : 6.917e+06 (roughly 70 MBytes of memory)
 Factor Ops : 5.199e+09 (less than 1 second per iteration)
 Threads    : 1

                  Objective                Residual
Iter       Primal          Dual         Primal    Dual     Compl     Time
   0   1.33157176e+21 -3.84956127e+17  2.22e+09 2.08e+12  9.26e+16     3s
   1   7.16756119e+20 -5.24601464e+17  2.18e+09 1.98e+12  9.03e+16     4s
   2   7.01685703e+20 -9.16943102e+17  1.63e+09 1.77e+12  7.38e+16     4s
   3   3.23437324e+20 -3.45884177e+18  6.73e+08 5.71e+11  3.59e+16     5s
   4   9.51035393e+19 -4.43801422e+18  1.87e+08 5.89e+10  1.10e+16     5s
   5   5.95585156e+18 -3.60887192e+18  1.15e+07 4.39e-03  7.58e+14     6s
   6   1.55230132e+18 -2.33089992e+18  3.07e+06 2.32e-03  2.20e+14     6s
   7   8.01742771e+17 -1.64278749e+18  1.62e+06 1.40e-03  1.21e+14     7s
   8   3.14920638e+17 -9.07736339e+17  6.36e+05 4.83e-03  5.11e+13     7s
   9   9.26319499e+16 -3.43981251e+17  1.74e+05 1.41e-03  1.62e+13     8s
  10   1.59927817e+16 -6.30275528e+16  2.91e+04 2.24e-03  2.86e+12     9s
  11   5.81352490e+15 -1.41518475e+16  1.05e+04 1.48e-02  8.63e+11     9s
  12   6.96593994e+14 -2.90284610e+15  1.15e+03 2.45e-02  1.23e+11    10s
  13   4.88350045e+14 -1.89967098e+15  8.05e+02 9.92e-03  8.22e+10    10s
  14   1.75974962e+14 -9.88387288e+14  2.42e+02 1.06e-02  3.33e+10    11s
  15   5.67921434e+13 -3.03553653e+14  2.19e+01 4.62e-03  9.89e+09    12s
  16   1.32399341e+13 -1.16252082e+14  5.08e+00 8.90e-03  3.04e+09    12s
  17   2.41716685e+12 -3.22305837e+13  8.89e-01 2.80e-03  7.46e+08    13s
  18   1.09734444e+11 -3.71305798e+12  2.12e-02 9.59e-04  7.89e+07    14s
  19   7.72136720e+09 -3.56495493e+11  4.64e-08 4.88e-04  7.49e+06    14s
  20   2.32959053e+09 -5.49150462e+10  1.53e-08 4.88e-04  1.18e+06    15s
  21   3.68803040e+08 -2.87532429e+09  7.11e-09 4.88e-04  6.67e+04    15s
  22   3.45859630e+07 -1.32921235e+08  5.25e-09 4.88e-04  3.44e+03    16s
  23   2.48595517e+06 -5.16770321e+06  3.35e-09 4.88e-04  1.57e+02    17s
  24   5.82146263e+05 -5.95930966e+05  2.24e-09 2.44e-04  2.42e+01    17s
  25   3.36439920e+05  7.22844867e+04  1.77e-09 2.44e-04  5.43e+00    18s
  26   3.14992631e+05  1.33967422e+05  1.24e-09 2.44e-04  3.72e+00    18s
  27   2.91675354e+05  2.00078540e+05  1.20e-09 2.44e-04  1.88e+00    19s
  28   2.69477797e+05  2.22259496e+05  9.20e-10 2.44e-04  9.71e-01    20s
  29   2.56131780e+05  2.39889820e+05  1.31e-09 2.44e-04  3.34e-01    20s
  30   2.51802779e+05  2.42707360e+05  8.53e-10 2.44e-04  1.87e-01    21s
  31   2.47380278e+05  2.46292031e+05  1.93e-09 2.44e-04  2.24e-02    21s
  32   2.46929961e+05  2.46661708e+05  1.76e-08 4.88e-04  5.61e-03    22s
  33   2.46809824e+05  2.46767842e+05  1.81e-08 2.44e-04  1.02e-03    23s
  34   2.46789253e+05  2.46778926e+05  2.08e-08 1.22e-04  3.41e-04    24s
  35   2.46782726e+05  2.46783022e+05  1.63e-08 2.44e-04  5.14e-05    24s
  36   2.46781734e+05  2.46780465e+05  7.60e-09 2.44e-04  1.71e-05    25s
  37   2.46781445e+05  2.46781249e+05  3.67e-09 2.44e-04  4.03e-06    26s
  38   2.46781323e+05  2.46781288e+05  2.40e-07 2.44e-04  1.03e-06    27s
  39   2.46781302e+05  2.46781287e+05  3.78e-05 2.44e-04  4.40e-07    27s
  40   2.46781292e+05  2.46781288e+05  9.65e-06 2.44e-04  1.48e-07    28s
  41   2.46781289e+05  2.46781288e+05  2.48e-06 2.44e-04  4.09e-08    29s
  42   2.46781289e+05  2.46781288e+05  1.37e-07 4.88e-04  3.91e-09    29s

Barrier solved model in 42 iterations and 29.27 seconds
Optimal objective 2.46781289e+05

Crossover log...

    6665 DPushes remaining with DInf 2.7505296e-04                29s
       0 DPushes remaining with DInf 0.0000000e+00                30s

    4096 PPushes remaining with PInf 1.0165891e-03                30s
       0 PPushes remaining with PInf 7.4546377e-02                30s

  Push phase complete: Pinf 7.4546377e-02, Dinf 3.5592851e-01     30s

Iteration    Objective       Primal Inf.    Dual Inf.      Time
    7800    2.4678119e+05   0.000000e+00   3.559285e-01     30s
    8011    2.4678119e+05   7.454638e-02   0.000000e+00     30s
Extra simplex iterations after uncrush: 18
    8083    2.4678129e+05   0.000000e+00   0.000000e+00     32s

Solved with barrier
Solved in 8083 iterations and 32.33 seconds
Optimal objective  2.467812885e+05

Wrote result file 'resultsGUROBI.sol'

